============================[ Problem Statistics ]=============================|                                                                             ||  Number of variables:          4242                                         ||  Number of clauses:           10240                                         ||  Parse time:                   0.64 s                                       ||                                                                             |============================[ Search Statistics ]==============================| Conflicts |          ORIGINAL         |          LEARNT          | Progress ||           |    Vars  Clauses Literals |    Limit  Clauses Lit/Cl |          |===============================================================================|       100 |    1591     6445  1001396 |     2363      100     53 | 62.501 % ||       250 |    1591     6445  1001396 |     2599      250     75 | 62.495 % |===============================================================================restarts              : 3conflicts             : 344            (358 /sec)decisions             : 606            (0.00 % random) (630 /sec)propagations          : 11939          (12411 /sec)conflict literals     : 27837          (94.64 % deleted)CPU time              : 0.962 sSATISFIABLE